c Generated map
c Size: 15 * 15, weights in range: 1 to 10, walls: True, with ratio 0.05
c dim 2 of 4
c
p sp 225 382
c graph contains 225 nodes and 382 arcs
c
a 1 2 7
a 2 1 7
a 2 17 4
a 17 2 4
a 2 3 5
a 3 2 5
a 3 18 8
a 18 3 8
a 3 4 7
a 4 3 7
a 4 19 8
a 19 4 8
a 4 5 8
a 5 4 8
a 5 20 7
a 20 5 7
a 5 6 5
a 6 5 5
a 6 21 5
a 21 6 5
a 6 7 8
a 7 6 8
a 7 22 3
a 22 7 3
a 7 8 3
a 8 7 3
a 8 23 7
a 23 8 7
a 8 9 8
a 9 8 8
a 9 10 5
a 10 9 5
a 10 25 2
a 25 10 2
a 10 11 2
a 11 10 2
a 11 26 8
a 26 11 8
a 11 12 6
a 12 11 6
a 12 27 2
a 27 12 2
a 12 13 6
a 13 12 6
a 13 28 5
a 28 13 5
a 13 14 5
a 14 13 5
a 14 29 9
a 29 14 9
a 14 15 1
a 15 14 1
a 17 32 3
a 32 17 3
a 17 18 4
a 18 17 4
a 18 33 7
a 33 18 7
a 18 19 3
a 19 18 3
a 19 34 6
a 34 19 6
a 19 20 4
a 20 19 4
a 20 35 5
a 35 20 5
a 20 21 5
a 21 20 5
a 21 36 8
a 36 21 8
a 21 22 1
a 22 21 1
a 22 37 10
a 37 22 10
a 22 23 1
a 23 22 1
a 23 38 4
a 38 23 4
a 25 40 2
a 40 25 2
a 25 26 7
a 26 25 7
a 26 41 7
a 41 26 7
a 26 27 3
a 27 26 3
a 27 42 2
a 42 27 2
a 27 28 10
a 28 27 10
a 28 43 6
a 43 28 6
a 28 29 6
a 29 28 6
a 29 44 10
a 44 29 10
a 31 46 5
a 46 31 5
a 31 32 7
a 32 31 7
a 32 47 7
a 47 32 7
a 32 33 6
a 33 32 6
a 33 48 4
a 48 33 4
a 33 34 1
a 34 33 1
a 34 49 8
a 49 34 8
a 34 35 9
a 35 34 9
a 35 50 10
a 50 35 10
a 35 36 2
a 36 35 2
a 36 51 3
a 51 36 3
a 36 37 10
a 37 36 10
a 37 52 8
a 52 37 8
a 37 38 8
a 38 37 8
a 38 53 6
a 53 38 6
a 38 39 4
a 39 38 4
a 39 54 7
a 54 39 7
a 39 40 5
a 40 39 5
a 40 55 5
a 55 40 5
a 40 41 9
a 41 40 9
a 41 56 6
a 56 41 6
a 41 42 8
a 42 41 8
a 42 57 10
a 57 42 10
a 42 43 5
a 43 42 5
a 43 58 10
a 58 43 10
a 43 44 9
a 44 43 9
a 44 59 4
a 59 44 4
a 46 61 4
a 61 46 4
a 46 47 3
a 47 46 3
a 47 62 4
a 62 47 4
a 47 48 6
a 48 47 6
a 48 63 9
a 63 48 9
a 48 49 8
a 49 48 8
a 49 64 3
a 64 49 3
a 49 50 3
a 50 49 3
a 50 65 9
a 65 50 9
a 50 51 1
a 51 50 1
a 51 66 1
a 66 51 1
a 51 52 1
a 52 51 1
a 52 67 10
a 67 52 10
a 52 53 5
a 53 52 5
a 53 68 5
a 68 53 5
a 53 54 6
a 54 53 6
a 54 69 2
a 69 54 2
a 54 55 1
a 55 54 1
a 55 70 4
a 70 55 4
a 55 56 10
a 56 55 10
a 56 71 9
a 71 56 9
a 56 57 2
a 57 56 2
a 57 72 8
a 72 57 8
a 57 58 1
a 58 57 1
a 58 73 10
a 73 58 10
a 58 59 5
a 59 58 5
a 59 74 7
a 74 59 7
a 59 60 1
a 60 59 1
a 60 75 6
a 75 60 6
a 61 62 1
a 62 61 1
a 62 77 2
a 77 62 2
a 62 63 2
a 63 62 2
a 63 78 3
a 78 63 3
a 63 64 8
a 64 63 8
a 64 79 1
a 79 64 1
a 64 65 8
a 65 64 8
a 65 80 7
a 80 65 7
a 65 66 10
a 66 65 10
a 66 81 9
a 81 66 9
a 66 67 2
a 67 66 2
a 67 82 3
a 82 67 3
a 67 68 1
a 68 67 1
a 68 83 8
a 83 68 8
a 68 69 10
a 69 68 10
a 69 84 1
a 84 69 1
a 69 70 8
a 70 69 8
a 70 85 7
a 85 70 7
a 70 71 8
a 71 70 8
a 71 86 8
a 86 71 8
a 71 72 4
a 72 71 4
a 72 87 6
a 87 72 6
a 72 73 3
a 73 72 3
a 73 88 10
a 88 73 10
a 73 74 5
a 74 73 5
a 74 89 2
a 89 74 2
a 74 75 5
a 75 74 5
a 75 90 5
a 90 75 5
a 77 92 3
a 92 77 3
a 77 78 8
a 78 77 8
a 78 93 6
a 93 78 6
a 78 79 6
a 79 78 6
a 79 94 3
a 94 79 3
a 79 80 1
a 80 79 1
a 80 95 4
a 95 80 4
a 80 81 1
a 81 80 1
a 81 96 4
a 96 81 4
a 81 82 6
a 82 81 6
a 82 97 4
a 97 82 4
a 82 83 3
a 83 82 3
a 83 98 8
a 98 83 8
a 83 84 4
a 84 83 4
a 84 99 8
a 99 84 8
a 84 85 1
a 85 84 1
a 85 100 4
a 100 85 4
a 85 86 2
a 86 85 2
a 86 101 1
a 101 86 1
a 86 87 2
a 87 86 2
a 87 102 4
a 102 87 4
a 87 88 4
a 88 87 4
a 88 103 3
a 103 88 3
a 88 89 6
a 89 88 6
a 89 104 1
a 104 89 1
a 89 90 10
a 90 89 10
a 90 105 3
a 105 90 3
a 91 106 1
a 106 91 1
a 91 92 2
a 92 91 2
a 92 107 3
a 107 92 3
a 92 93 3
a 93 92 3
a 93 108 5
a 108 93 5
a 93 94 1
a 94 93 1
a 94 109 9
a 109 94 9
a 94 95 6
a 95 94 6
a 95 110 2
a 110 95 2
a 95 96 5
a 96 95 5
a 96 111 7
a 111 96 7
a 96 97 1
a 97 96 1
a 97 98 7
a 98 97 7
a 98 113 1
a 113 98 1
a 98 99 5
a 99 98 5
a 99 114 3
a 114 99 3
a 99 100 1
a 100 99 1
a 100 101 6
a 101 100 6
a 101 116 5
a 116 101 5
a 101 102 10
a 102 101 10
a 102 117 5
a 117 102 5
a 102 103 7
a 103 102 7
a 103 118 2
a 118 103 2
a 103 104 1
a 104 103 1
a 104 119 7
a 119 104 7
a 104 105 10
a 105 104 10
a 105 120 2
a 120 105 2
a 106 121 1
a 121 106 1
a 106 107 4
a 107 106 4
a 107 122 5
a 122 107 5
a 107 108 6
a 108 107 6
a 108 123 3
a 123 108 3
a 108 109 1
a 109 108 1
a 109 124 10
a 124 109 10
a 109 110 7
a 110 109 7
a 110 125 1
a 125 110 1
a 110 111 5
a 111 110 5
a 111 126 3
a 126 111 3
a 113 128 8
a 128 113 8
a 113 114 3
a 114 113 3
a 114 129 2
a 129 114 2
a 116 131 8
a 131 116 8
a 116 117 4
a 117 116 4
a 117 132 8
a 132 117 8
a 117 118 8
a 118 117 8
a 118 133 3
a 133 118 3
a 118 119 2
a 119 118 2
a 119 134 5
a 134 119 5
a 119 120 1
a 120 119 1
a 120 135 3
a 135 120 3
a 121 136 4
a 136 121 4
a 121 122 2
a 122 121 2
a 122 137 8
a 137 122 8
a 122 123 10
a 123 122 10
a 123 138 7
a 138 123 7
a 123 124 6
a 124 123 6
a 124 139 4
a 139 124 4
a 124 125 5
a 125 124 5
a 125 140 3
a 140 125 3
a 125 126 1
a 126 125 1
a 126 141 4
a 141 126 4
a 126 127 8
a 127 126 8
a 127 142 8
a 142 127 8
a 127 128 2
a 128 127 2
a 128 143 3
a 143 128 3
a 128 129 7
a 129 128 7
a 129 130 1
a 130 129 1
a 130 145 3
a 145 130 3
a 130 131 10
a 131 130 10
a 131 146 2
a 146 131 2
a 131 132 4
a 132 131 4
a 132 147 3
a 147 132 3
a 132 133 2
a 133 132 2
a 133 148 1
a 148 133 1
a 133 134 5
a 134 133 5
a 134 149 1
a 149 134 1
a 134 135 4
a 135 134 4
a 135 150 4
a 150 135 4
a 136 151 9
a 151 136 9
a 136 137 10
a 137 136 10
a 137 152 8
a 152 137 8
a 137 138 8
a 138 137 8
a 138 153 3
a 153 138 3
a 138 139 2
a 139 138 2
a 139 154 3
a 154 139 3
a 139 140 3
a 140 139 3
a 140 155 2
a 155 140 2
a 140 141 9
a 141 140 9
a 141 156 3
a 156 141 3
a 141 142 10
a 142 141 10
a 142 157 2
a 157 142 2
a 142 143 6
a 143 142 6
a 143 158 2
a 158 143 2
a 145 160 9
a 160 145 9
a 145 146 2
a 146 145 2
a 146 161 4
a 161 146 4
a 146 147 5
a 147 146 5
a 147 162 7
a 162 147 7
a 147 148 5
a 148 147 5
a 148 163 5
a 163 148 5
a 148 149 4
a 149 148 4
a 149 164 2
a 164 149 2
a 149 150 4
a 150 149 4
a 150 165 3
a 165 150 3
a 151 166 2
a 166 151 2
a 151 152 7
a 152 151 7
a 152 167 5
a 167 152 5
a 152 153 10
a 153 152 10
a 153 168 9
a 168 153 9
a 153 154 3
a 154 153 3
a 154 169 7
a 169 154 7
a 154 155 5
a 155 154 5
a 155 170 7
a 170 155 7
a 155 156 1
a 156 155 1
a 156 157 5
a 157 156 5
a 157 172 5
a 172 157 5
a 157 158 9
a 158 157 9
a 158 173 9
a 173 158 9
a 160 175 4
a 175 160 4
a 160 161 7
a 161 160 7
a 161 176 6
a 176 161 6
a 161 162 3
a 162 161 3
a 162 177 10
a 177 162 10
a 162 163 3
a 163 162 3
a 163 178 6
a 178 163 6
a 163 164 3
a 164 163 3
a 164 179 10
a 179 164 10
a 164 165 2
a 165 164 2
a 165 180 9
a 180 165 9
a 166 181 9
a 181 166 9
a 166 167 2
a 167 166 2
a 167 182 9
a 182 167 9
a 167 168 6
a 168 167 6
a 168 183 6
a 183 168 6
a 168 169 6
a 169 168 6
a 169 184 3
a 184 169 3
a 169 170 8
a 170 169 8
a 170 185 2
a 185 170 2
a 172 187 1
a 187 172 1
a 172 173 4
a 173 172 4
a 173 188 3
a 188 173 3
a 173 174 8
a 174 173 8
a 174 189 9
a 189 174 9
a 174 175 7
a 175 174 7
a 175 190 2
a 190 175 2
a 175 176 7
a 176 175 7
a 176 191 10
a 191 176 10
a 176 177 6
a 177 176 6
a 177 192 1
a 192 177 1
a 177 178 9
a 178 177 9
a 178 179 3
a 179 178 3
a 179 194 8
a 194 179 8
a 179 180 5
a 180 179 5
a 180 195 5
a 195 180 5
a 181 196 9
a 196 181 9
a 181 182 7
a 182 181 7
a 182 197 1
a 197 182 1
a 182 183 10
a 183 182 10
a 183 198 4
a 198 183 4
a 183 184 10
a 184 183 10
a 184 199 10
a 199 184 10
a 184 185 7
a 185 184 7
a 185 200 1
a 200 185 1
a 185 186 4
a 186 185 4
a 186 201 6
a 201 186 6
a 186 187 5
a 187 186 5
a 187 202 10
a 202 187 10
a 187 188 6
a 188 187 6
a 188 203 2
a 203 188 2
a 188 189 1
a 189 188 1
a 189 204 7
a 204 189 7
a 189 190 6
a 190 189 6
a 190 205 7
a 205 190 7
a 190 191 7
a 191 190 7
a 191 206 6
a 206 191 6
a 191 192 3
a 192 191 3
a 192 207 1
a 207 192 1
a 194 209 1
a 209 194 1
a 194 195 1
a 195 194 1
a 195 210 8
a 210 195 8
a 196 211 7
a 211 196 7
a 196 197 5
a 197 196 5
a 197 212 10
a 212 197 10
a 197 198 6
a 198 197 6
a 198 213 8
a 213 198 8
a 198 199 7
a 199 198 7
a 199 214 1
a 214 199 1
a 199 200 3
a 200 199 3
a 200 215 6
a 215 200 6
a 200 201 9
a 201 200 9
a 201 216 6
a 216 201 6
a 201 202 10
a 202 201 10
a 202 217 8
a 217 202 8
a 202 203 4
a 203 202 4
a 203 218 10
a 218 203 10
a 203 204 1
a 204 203 1
a 204 219 8
a 219 204 8
a 204 205 5
a 205 204 5
a 205 220 9
a 220 205 9
a 205 206 10
a 206 205 10
a 206 221 5
a 221 206 5
a 206 207 9
a 207 206 9
a 207 222 9
a 222 207 9
a 207 208 7
a 208 207 7
a 208 223 9
a 223 208 9
a 208 209 10
a 209 208 10
a 209 224 6
a 224 209 6
a 209 210 5
a 210 209 5
a 210 225 3
a 225 210 3
a 211 212 4
a 212 211 4
a 212 213 5
a 213 212 5
a 213 214 2
a 214 213 2
a 214 215 5
a 215 214 5
a 215 216 10
a 216 215 10
a 216 217 2
a 217 216 2
a 217 218 6
a 218 217 6
a 218 219 3
a 219 218 3
a 219 220 1
a 220 219 1
a 220 221 9
a 221 220 9
a 221 222 6
a 222 221 6
a 222 223 7
a 223 222 7
a 223 224 7
a 224 223 7
a 224 225 8
a 225 224 8
